PARAMETER_FILE = even/even_uncomplete_graph_new/seg/par/random191.par
PROBLEM_FILE = even/even_uncomplete_graph_new/seg/mat/random191.tsp
Successes/Runs = 0/10
Cost.min = 1049, Cost.avg = 1049.00, Cost.max = 1049
Gap.min = 0.0000%, Gap.avg = 0.0000%, Gap.max = 0.0000%
Trials.min = 1000, Trials.avg = 1000.0, Trials.max = 1000
Time.min = 0.60 sec., Time.avg = 0.73 sec., Time.max = 0.99 sec.
Time.total = 7.50 sec.
